p cnf 91 377
-3 -16 -23 67 -89 91 0
10 11 12 26 -27 34 0
10 11 12 -27 -28 34 0
10 20 21 22 -69 -77 0
13 -31 58 -73 78 79 0
13 -31 58 -73 -78 79 0
1 -42 45 60 83 0
3 4 23 -51 -91 0
-3 -16 -23 -51 67 0
-3 51 67 68 -89 0
4 23 -51 -68 -91 0
-4 52 -63 78 -84 0
-8 42 45 46 -60 0
-15 29 -31 57 58 0
-21 22 69 -72 88 0
29 -30 -31 57 58 0
-3 -16 -19 -89 91 0
1 23 27 56 0
2 -35 -61 -74 0
2 56 59 -62 0
-2 -5 -6 -63 0
3 4 5 -82 0
3 -13 68 -91 0
3 23 28 59 0
3 23 56 59 0
4 5 63 -84 0
4 5 -78 -84 0
4 19 51 85 0
-5 52 -78 82 0
-5 62 -63 84 0
7 8 -47 64 0
7 9 45 46 0
7 9 45 -87 0
7 9 -47 -48 0
11 26 -31 57 0
11 -31 57 -76 0
-13 68 90 -91 0
15 25 -29 30 0
-17 -39 -44 -77 0
18 39 47 64 0
-18 -19 -60 -69 0
-18 -41 -48 -64 0
20 -38 53 -54 0
22 -41 -44 -72 0
23 -50 51 68 0
23 -74 -75 -76 0
-23 -24 -28 -56 0
-23 25 -32 56 0
25 30 33 36 0
25 -32 -56 59 0
32 33 56 61 0
-35 36 62 -63 0
40 -43 45 -87 0
57 58 78 -79 0
-2 37 -63 82 0
4 19 -51 -68 0
4 23 51 -91 0
7 8 55 64 0
7 9 55 -87 0
-8 -42 60 -83 0
-8 46 47 -64 0
12 13 57 58 0
13 57 78 -79 0
-14 -73 78 79 0
-19 51 -89 -91 0
20 41 -54 -70 0
29 -57 58 -73 0
40 -42 45 46 0
50 66 67 -89 0
52 -61 78 -84 0
1 8 83 0
-1 8 -88 0
-1 24 -32 0
-1 70 -88 0
2 5 -62 0
2 24 -35 0
2 24 59 0
-2 -5 -6 0
-2 23 -65 0
-2 -59 61 0
3 4 16 0
3 5 -82 0
3 -13 -67 0
-3 16 51 0
-3 -19 -28 0
-3 -19 -51 0
-3 -23 89 0
-3 -66 89 0
4 -6 61 0
4 49 -68 0
4 65 -82 0
-5 6 35 0
-5 35 62 0
-7 -8 -46 0
-7 -8 87 0
8 -45 55 0
8 -46 -47 0
-8 -9 -46 0
-8 -39 -48 0
-8 -46 -47 0
-8 48 -83 0
-8 -53 -71 0
-8 -69 88 0
-9 -40 43 0
-11 -14 -15 0
12 -30 -73 0
-12 -29 73 0
-12 -78 -79 0
13 49 67 0
13 85 -86 0
13 -86 -90 0
-13 -49 90 0
-14 25 76 0
16 50 67 0
-16 -19 -85 0
-16 -50 -68 0
17 18 69 0
17 19 39 0
17 44 77 0
-17 -18 -47 0
-17 -19 43 0
-18 -23 -38 0
-18 -54 81 0
19 40 -51 0
19 -50 68 0
19 -65 -80 0
-19 -27 -34 0
-19 36 63 0
-19 51 81 0
-19 -51 -86 0
-19 79 84 0
20 -70 88 0
-21 -69 -88 0
-21 70 -77 0
22 41 -53 0
-22 -41 53 0
-22 69 -88 0
23 -74 -75 0
-23 -40 -43 0
-23 51 -81 0
-23 -79 84 0
-23 -86 91 0
24 -32 -35 0
-24 35 -59 0
25 27 34 0
25 29 33 0
-25 -27 -28 0
26 -27 -34 0
-26 27 57 0
27 -34 -57 0
32 -33 -34 0
-32 -35 61 0
-32 59 61 0
-33 37 63 0
-35 65 82 0
-36 -37 63 0
38 39 41 0
38 -47 54 0
38 -49 -81 0
38 54 72 0
-38 -39 70 0
40 55 -87 0
40 -83 87 0
-40 46 87 0
42 83 -87 0
-42 46 -55 0
44 70 -71 0
-45 -53 55 0
46 -48 64 0
50 66 89 0
50 -66 89 0
51 -81 -85 0
-51 68 90 0
53 -70 71 0
-53 70 -72 0
-54 70 72 0
58 -73 -79 0
58 76 80 0
-58 75 76 0
-61 -78 84 0
66 67 -90 0
66 -67 86 0
66 -86 90 0
-66 86 90 0
-66 86 -90 0
-66 -86 -90 0
70 77 -88 0
70 83 88 0
78 82 84 0
29 -31 -73 78 0
45 46 60 83 0
1 10 0
1 23 0
1 24 0
1 -60 0
1 -62 0
1 69 0
1 78 0
1 -83 0
1 -87 0
-1 -2 0
-1 -3 0
-1 8 0
-1 -10 0
-1 20 0
-1 70 0
-1 73 0
-1 -90 0
2 6 0
2 33 0
2 56 0
2 65 0
2 74 0
2 -74 0
-2 -59 0
3 18 0
3 -25 0
3 50 0
3 56 0
3 68 0
3 -82 0
-3 16 0
-3 -41 0
-3 -66 0
-3 68 0
4 18 0
4 -52 0
4 -61 0
4 77 0
4 89 0
-4 52 0
-4 84 0
-4 -84 0
5 10 0
5 44 0
5 -52 0
5 -76 0
5 78 0
-5 6 0
-5 63 0
-5 74 0
6 35 0
6 -37 0
6 41 0
6 -62 0
-6 29 0
-6 36 0
-6 37 0
7 8 0
7 -40 0
7 42 0
7 48 0
7 60 0
-7 -45 0
-7 -46 0
-7 -60 0
-7 87 0
8 -45 0
8 -46 0
8 -50 0
-8 -53 0
-8 -54 0
-8 -77 0
-8 87 0
9 39 0
9 -43 0
9 -47 0
9 55 0
9 -55 0
10 -21 0
10 22 0
10 26 0
10 -30 0
10 49 0
10 -57 0
10 -70 0
10 83 0
10 -90 0
-10 -11 0
-10 -26 0
-10 -34 0
11 14 0
11 15 0
11 27 0
-11 13 0
-11 31 0
-11 -57 0
-11 76 0
12 14 0
12 57 0
-12 -13 0
-12 -15 0
-12 31 0
-12 35 0
-12 -58 0
-12 78 0
-12 79 0
-12 -79 0
13 -34 0
13 85 0
13 -85 0
13 -90 0
13 91 0
-13 -50 0
-13 86 0
14 31 0
14 -57 0
14 -58 0
14 73 0
14 78 0
14 -79 0
-14 57 0
-14 -84 0
15 31 0
15 32 0
15 -57 0
15 -58 0
-15 -19 0
-15 -73 0
16 32 0
16 49 0
16 50 0
16 67 0
16 -72 0
-16 -49 0
-16 -50 0
-16 -66 0
-16 -85 0
17 23 0
17 40 0
17 -44 0
-17 20 0
-17 44 0
-17 48 0
-17 69 0
-17 71 0
-17 77 0
18 21 0
18 41 0
18 42 0
18 48 0
18 54 0
-18 64 0
19 21 0
19 27 0
19 -30 0
19 32 0
19 41 0
19 47 0
19 54 0
19 56 0
19 64 0
19 68 0
19 69 0
19 -74 0
-19 -26 0
-19 -38 0
-19 40 0
-19 -40 0
-19 -44 0
-19 -48 0
-19 -79 0
-19 80 0
-19 81 0
-19 83 0
-19 85 0
-19 -85 0
-19 -86 0
-19 -91 0
20 22 0
20 -72 0
-20 -21 0
-20 -22 0
-20 -53 0
-20 72 0
-20 77 0
21 23 0
